Traveling Salesman Problem/TSP_generados/Aleatorio1621103312_9.tsp
NAME: Aleatorio1621103312_9.tsp
COMMENT: Randomly generated scenario
TYPE: TSP
DIMENSION: 9
EDGE_WEIGHT_TYPE: ATT
NODE_COORD_SECTION
1 43.58 48.31
2 33.6 15.02
3 24.16 37.39
4 41.81 13.29
5 6.25 44.4
6 10.49 4.98
7 49.73 1.55
8 30.99 38.71
9 15.22 49.07
