Traveling Salesman Problem/TSP_generados/Aleatorio1621103312_9.opt.tour
NAME: Aleatorio1621103312_9.opt.tour
COMMENT: Optimal solution for Aleatorio1621103312_9 (182.16921501796344)
TYPE: TOUR
DIMENSION: 9
TOUR_SECTION
1 7 4 2 6 5 9 3 8
-1
EOF
